% table generation started 2022-10-06 15:09:25
% timeout: 300000ms
Backend
	& \multicolumn{2}{c}{Gecode}
\\
	\cmidrule(lr){2-3}
instance
	& \texttt{obj} & time\\
\midrule
005\_003\_01
	& $\mathbf{-266}$	&	\textbf{716}
\\
009\_006\_03
	& $\mathbf{-264}$	&	t/o
\\
010\_008\_01
	& $\mathbf{-636}$	&	\textbf{537}
\\
012\_006\_03
	& $\mathbf{-538}$	&	\textbf{500}
\\
020\_016\_02
	& $\mathbf{1375}$	&	t/o
\\
023\_017\_03
	& $\mathbf{-1239}$	&	\textbf{581}
\\
035\_003\_16
	& $\mathbf{-184}$	&	\textbf{592}
\\
039\_031\_04
	& $\mathbf{-1638}$	&	\textbf{250743}
\\
041\_035\_03
	& $\mathbf{-1653}$	&	\textbf{2285}
\\
047\_015\_16
	& $\mathbf{-1091}$	&	\textbf{706}
\\
060\_040\_10
	& $\mathbf{-2422}$	&	\textbf{85479}
\\
071\_045\_13
	& $\mathbf{-1666}$	&	t/o
\\
110\_100\_05
	& $\mathbf{3146}$	&	t/o
\\
112\_082\_15
	& $\mathbf{10449}$	&	t/o
\\
121\_111\_05
	& $\mathbf{12671}$	&	t/o
\\
162\_146\_08
	& $\mathbf{35423}$	&	t/o
\\
